p edge 74 228
e 1 4
e 1 29
e 1 42
e 1 58
e 1 66
e 1 69
e 2 7
e 2 26
e 2 32
e 2 61
e 2 73
e 3 32
e 3 52
e 3 55
e 3 56
e 3 68
e 4 8
e 4 43
e 4 59
e 4 74
e 5 30
e 5 41
e 5 44
e 5 50
e 5 61
e 5 65
e 5 69
e 6 13
e 6 22
e 6 54
e 7 10
e 7 15
e 7 18
e 7 26
e 7 27
e 7 36
e 7 40
e 7 41
e 7 55
e 8 38
e 8 39
e 8 53
e 8 70
e 8 73
e 9 23
e 9 42
e 9 57
e 10 17
e 10 22
e 10 26
e 10 32
e 10 46
e 10 59
e 11 74
e 12 16
e 12 22
e 12 29
e 12 35
e 12 45
e 12 66
e 13 22
e 13 42
e 13 43
e 13 50
e 13 51
e 13 54
e 14 20
e 14 26
e 14 27
e 14 74
e 15 16
e 15 19
e 15 35
e 15 43
e 15 44
e 15 49
e 15 53
e 15 54
e 15 61
e 15 62
e 15 72
e 16 52
e 16 68
e 17 23
e 17 42
e 17 44
e 17 47
e 18 35
e 18 39
e 18 40
e 18 47
e 18 49
e 18 51
e 18 56
e 19 48
e 19 63
e 20 26
e 20 38
e 20 42
e 20 53
e 20 56
e 20 62
e 21 33
e 21 42
e 22 25
e 22 27
e 22 33
e 22 38
e 22 46
e 22 47
e 22 68
e 22 72
e 23 31
e 23 35
e 23 48
e 23 63
e 24 28
e 24 38
e 24 53
e 24 63
e 25 29
e 25 39
e 25 42
e 25 43
e 25 46
e 25 56
e 25 61
e 25 73
e 26 32
e 26 45
e 26 57
e 26 71
e 27 52
e 27 53
e 27 68
e 28 44
e 28 48
e 28 68
e 29 37
e 29 66
e 30 44
e 30 51
e 30 57
e 30 60
e 31 38
e 31 39
e 31 43
e 31 53
e 31 58
e 31 71
e 32 46
e 32 59
e 33 51
e 33 74
e 34 35
e 34 46
e 34 56
e 34 67
e 35 46
e 35 59
e 35 69
e 36 72
e 37 43
e 37 49
e 37 60
e 38 44
e 38 48
e 38 54
e 38 72
e 39 42
e 40 50
e 40 52
e 40 62
e 41 44
e 41 51
e 41 52
e 42 44
e 42 47
e 42 48
e 42 56
e 43 56
e 43 60
e 43 61
e 44 66
e 45 46
e 45 48
e 45 53
e 46 47
e 46 55
e 46 72
e 47 54
e 47 55
e 47 62
e 47 64
e 48 59
e 49 51
e 49 53
e 49 55
e 49 57
e 49 62
e 50 72
e 50 73
e 50 74
e 51 57
e 51 60
e 51 68
e 52 54
e 52 68
e 52 69
e 53 69
e 54 55
e 54 73
e 54 74
e 55 67
e 56 58
e 56 65
e 57 64
e 58 74
e 60 71
e 63 65
e 63 67
e 65 74
e 66 67
e 66 72
e 69 70
e 70 72
e 71 73
e 72 74
